certificates/rado_a13_c238_N36.cnf
c Rad2 upper bound instance: x1 + 13*x2 - x3 = 238, interval [1,36]
p cnf 36 198
1 10 19 0
-1 -10 -19 0
1 20 23 0
-1 -20 -23 0
1 21 36 0
-1 -21 -36 0
2 11 19 0
-2 -11 -19 0
2 20 24 0
-2 -20 -24 0
3 12 19 0
-3 -12 -19 0
3 20 25 0
-3 -20 -25 0
4 13 19 0
-4 -13 -19 0
4 20 26 0
-4 -20 -26 0
1 5 18 0
-1 -5 -18 0
5 14 19 0
-5 -14 -19 0
5 20 27 0
-5 -20 -27 0
2 6 18 0
-2 -6 -18 0
6 15 19 0
-6 -15 -19 0
6 20 28 0
-6 -20 -28 0
3 7 18 0
-3 -7 -18 0
7 16 19 0
-7 -16 -19 0
7 20 29 0
-7 -20 -29 0
4 8 18 0
-4 -8 -18 0
8 17 19 0
-8 -17 -19 0
8 20 30 0
-8 -20 -30 0
5 9 18 0
-5 -9 -18 0
9 18 19 0
-9 -18 -19 0
9 20 31 0
-9 -20 -31 0
6 10 18 0
-6 -10 -18 0
10 19 0
-10 -19 0
10 20 32 0
-10 -20 -32 0
7 11 18 0
-7 -11 -18 0
11 19 20 0
-11 -19 -20 0
11 20 33 0
-11 -20 -33 0
8 12 18 0
-8 -12 -18 0
12 19 21 0
-12 -19 -21 0
12 20 34 0
-12 -20 -34 0
9 13 18 0
-9 -13 -18 0
13 19 22 0
-13 -19 -22 0
13 20 35 0
-13 -20 -35 0
10 14 18 0
-10 -14 -18 0
14 19 23 0
-14 -19 -23 0
14 20 36 0
-14 -20 -36 0
11 15 18 0
-11 -15 -18 0
15 19 24 0
-15 -19 -24 0
12 16 18 0
-12 -16 -18 0
16 19 25 0
-16 -19 -25 0
13 17 18 0
-13 -17 -18 0
17 19 26 0
-17 -19 -26 0
1 17 18 0
-1 -17 -18 0
14 18 0
-14 -18 0
18 19 27 0
-18 -19 -27 0
2 17 19 0
-2 -17 -19 0
15 18 19 0
-15 -18 -19 0
19 28 0
-19 -28 0
3 17 20 0
-3 -17 -20 0
16 18 20 0
-16 -18 -20 0
19 20 29 0
-19 -20 -29 0
4 17 21 0
-4 -17 -21 0
17 18 21 0
-17 -18 -21 0
19 21 30 0
-19 -21 -30 0
5 17 22 0
-5 -17 -22 0
18 22 0
-18 -22 0
19 22 31 0
-19 -22 -31 0
6 17 23 0
-6 -17 -23 0
18 19 23 0
-18 -19 -23 0
19 23 32 0
-19 -23 -32 0
7 17 24 0
-7 -17 -24 0
18 20 24 0
-18 -20 -24 0
19 24 33 0
-19 -24 -33 0
8 17 25 0
-8 -17 -25 0
18 21 25 0
-18 -21 -25 0
19 25 34 0
-19 -25 -34 0
9 17 26 0
-9 -17 -26 0
18 22 26 0
-18 -22 -26 0
19 26 35 0
-19 -26 -35 0
10 17 27 0
-10 -17 -27 0
18 23 27 0
-18 -23 -27 0
19 27 36 0
-19 -27 -36 0
11 17 28 0
-11 -17 -28 0
18 24 28 0
-18 -24 -28 0
12 17 29 0
-12 -17 -29 0
18 25 29 0
-18 -25 -29 0
13 17 30 0
-13 -17 -30 0
18 26 30 0
-18 -26 -30 0
1 16 31 0
-1 -16 -31 0
14 17 31 0
-14 -17 -31 0
18 27 31 0
-18 -27 -31 0
2 16 32 0
-2 -16 -32 0
15 17 32 0
-15 -17 -32 0
18 28 32 0
-18 -28 -32 0
3 16 33 0
-3 -16 -33 0
16 17 33 0
-16 -17 -33 0
18 29 33 0
-18 -29 -33 0
4 16 34 0
-4 -16 -34 0
17 34 0
-17 -34 0
18 30 34 0
-18 -30 -34 0
5 16 35 0
-5 -16 -35 0
17 18 35 0
-17 -18 -35 0
18 31 35 0
-18 -31 -35 0
6 16 36 0
-6 -16 -36 0
17 19 36 0
-17 -19 -36 0
18 32 36 0
-18 -32 -36 0
