certificates/rado_a13_c238_N36.drat
18 17 -36 0
17 -35 -36 0
-35 -36 0
d 17 -35 -36 0
18 35 0
-17 -36 0
-18 -36 0
d -32 -18 -36 0
-36 0
-17 -18 0
d -17 -21 -18 0
-20 -18 0
d -16 -20 -18 0
-18 0
14 0
22 0
32 0
35 0
-17 0
34 0
19 0
1 0
13 0
21 0
-25 0
-10 0
0
